% Data file generated from RandomInstances/28_0.45_2.col DIMACS file
size = 28;

chi = 7;

adjacency = [|0,0,0,0,0,1,0,0,1,0,0,0,0,1,0,1,0,0,0,1,0,0,1,0,1,1,1,0,
|0,0,0,0,0,1,0,0,0,0,1,0,0,0,0,0,1,0,0,0,1,0,0,0,1,1,1,1,
|0,0,0,1,0,0,0,0,0,1,1,0,0,0,1,0,1,0,1,0,1,0,0,0,1,1,0,1,
|0,0,1,0,0,0,1,0,1,0,1,0,1,0,1,1,1,0,1,0,1,0,0,1,0,1,1,0,
|0,0,0,0,0,1,0,0,0,1,0,1,0,0,1,0,0,1,0,1,1,0,1,1,0,1,0,0,
|1,1,0,0,1,0,1,0,1,1,0,1,0,1,0,1,1,1,0,0,1,0,0,1,1,1,1,1,
|0,0,0,1,0,1,0,1,1,0,1,1,0,0,0,0,0,0,0,1,0,0,0,0,1,1,1,1,
|0,0,0,0,0,0,1,0,1,0,1,1,0,0,0,1,0,1,1,0,1,0,1,0,1,1,0,0,
|1,0,0,1,0,1,1,1,0,0,1,0,1,1,1,1,1,0,0,1,1,0,1,0,0,0,1,0,
|0,0,1,0,1,1,0,0,0,0,1,0,1,1,0,0,0,0,1,0,1,1,0,1,1,1,0,1,
|0,1,1,1,0,0,1,1,1,1,0,0,1,0,0,1,0,0,1,0,1,0,0,1,0,0,0,0,
|0,0,0,0,1,1,1,1,0,0,0,0,1,1,0,1,0,1,1,1,0,1,1,1,1,1,1,0,
|0,0,0,1,0,0,0,0,1,1,1,1,0,0,0,1,0,0,1,0,0,0,0,1,1,0,0,1,
|1,0,0,0,0,1,0,0,1,1,0,1,0,0,1,0,1,1,0,1,1,0,0,0,0,0,1,0,
|0,0,1,1,1,0,0,0,1,0,0,0,0,1,0,1,1,0,0,1,0,0,0,0,0,1,0,0,
|1,0,0,1,0,1,0,1,1,0,1,1,1,0,1,0,0,1,1,1,1,0,0,0,0,0,1,0,
|0,1,1,1,0,1,0,0,1,0,0,0,0,1,1,0,0,1,0,0,1,1,0,1,0,0,1,0,
|0,0,0,0,1,1,0,1,0,0,0,1,0,1,0,1,1,0,0,1,1,1,1,0,0,1,1,1,
|0,0,1,1,0,0,0,1,0,1,1,1,1,0,0,1,0,0,0,1,1,0,0,1,0,1,0,0,
|1,0,0,0,1,0,1,0,1,0,0,1,0,1,1,1,0,1,1,0,1,1,1,1,1,0,0,1,
|0,1,1,1,1,1,0,1,1,1,1,0,0,1,0,1,1,1,1,1,0,1,1,0,1,1,0,1,
|0,0,0,0,0,0,0,0,0,1,0,1,0,0,0,0,1,1,0,1,1,0,1,1,0,0,0,1,
|1,0,0,0,1,0,0,1,1,0,0,1,0,0,0,0,0,1,0,1,1,1,0,1,1,1,0,0,
|0,0,0,1,1,1,0,0,0,1,1,1,1,0,0,0,1,0,1,1,0,1,1,0,1,0,1,1,
|1,1,1,0,0,1,1,1,0,1,0,1,1,0,0,0,0,0,0,1,1,0,1,1,0,0,1,0,
|1,1,1,1,1,1,1,1,0,1,0,1,0,0,1,0,0,1,1,0,1,0,1,0,0,0,0,0,
|1,1,0,1,0,1,1,0,1,0,0,1,0,1,0,1,1,1,0,0,0,0,0,1,1,0,0,0,
|0,1,1,0,0,1,1,0,0,1,0,0,1,0,0,0,0,1,0,1,1,1,0,1,0,0,0,0,
|];